6 32 4 10
1 8 17 3 11 15 1 1 13 11 14 13 9 12 14 7 18 6 1 17 14 15 2 17 18 2 8 3 17 7 2 8 
15.27 5.97 6.98 5.67 9.95 0.33 3.03 8.6 9.75 12.72 11.02 0.34 14.88 4.87 2.81 2.31 9.43 0.47 15.91 11.8 14.58 12.99 4.48 4.22 3.28 1.37 0.83 1.03 3.01 4.11 15.53 7.43 
0.49 9.96 7.21 11.64 13.64 15.16 14.23 8.04 4.84 15.05 10.24 11.5 13.2 14.81 4.23 7.59 12.35 8.26 2.48 8.71 3.72 7.68 10.49 4 6.62 5.66 7.39 2.23 10.95 0.23 13.21 9.9 
5.86 9.64 1.96 9.3 13.74 4.1 14 9.7 8.64 5.2 7.87 7.54 13.16 5.7 8.44 13.43 7.64 0.75 14.81 11.02 9.36 13.49 15.12 9.42 3.47 5.31 15.98 10.47 7.98 11.85 6.84 6.28 
11.17 10.25 8.45 3.19 11.83 11.06 7.22 11.42 4.12 14.56 3.36 9.39 8.79 10.64 7.24 0.93 14.7 7.38 14.33 2.99 13.25 12.67 14.31 5.02 15.73 4.67 13.27 0.49 1.95 2.06 5.19 13.2 
8 8 8 8 8 8 8 8 8 8 8 8 8 8 8 8 8 8 8 8 8 8 8 8 8 8 8 8 8 8 8 8 
7.88 14.47 15.66 6.71 11.12 2.65 8.26 2.16 13.7 6.26 0.93 3.5 0.28 4.39 14.89 5.58 13.18 7.69 8.97 14.66 10.43 4.24 15.54 5.57 9.8 7.87 15.88 7.06 7.18 5.54 15.99 10.97 
1 1 1 1 1 1 1 1 1 1 1 1 1 1 1 1 1 1 1 1 1 1 1 1 1 1 1 1 1 1 1 1 
1 1 1 1 1 1 1 1 1 1 1 1 1 1 1 1 1 1 1 1 1 1 1 1 1 1 1 1 1 1 1 1 
1 1 1 1 1 1 1 1 1 1 1 1 1 1 1 1 1 1 1 1 1 1 1 1 1 1 1 1 1 1 1 1 
1 1 1 1 1 1 1 1 1 1 1 1 1 1 1 1 1 1 1 1 1 1 1 1 1 1 1 1 1 1 1 1 
1 1 1 1 1 1 1 1 1 1 1 1 1 1 1 1 1 1 1 1 1 1 1 1 1 1 1 1 1 1 1 1 
1 1 1 1 1 1 1 1 1 1 1 1 1 1 1 1 1 1 1 1 1 1 1 1 1 1 1 1 1 1 1 1 
0.01 0.01 0.01 0.01 0.01 0.01 0.01 0.01 0.01 0.01 0.01 0.01 0.01 0.01 0.01 0.01 0.01 0.01 0.01 0.01 0.01 0.01 0.01 0.01 0.01 0.01 0.01 0.01 0.01 0.01 0.01 0.01 
0.02 0.02 0.02 0.02 0.02 0.02 0.02 0.02 0.02 0.02 0.02 0.02 0.02 0.02 0.02 0.02 0.02 0.02 0.02 0.02 0.02 0.02 0.02 0.02 0.02 0.02 0.02 0.02 0.02 0.02 0.02 0.02 
0.03 0.03 0.03 0.03 0.03 0.03 0.03 0.03 0.03 0.03 0.03 0.03 0.03 0.03 0.03 0.03 0.03 0.03 0.03 0.03 0.03 0.03 0.03 0.03 0.03 0.03 0.03 0.03 0.03 0.03 0.03 0.03 
0.04 0.04 0.04 0.04 0.04 0.04 0.04 0.04 0.04 0.04 0.04 0.04 0.04 0.04 0.04 0.04 0.04 0.04 0.04 0.04 0.04 0.04 0.04 0.04 0.04 0.04 0.04 0.04 0.04 0.04 0.04 0.04 
0.05 0.05 0.05 0.05 0.05 0.05 0.05 0.05 0.05 0.05 0.05 0.05 0.05 0.05 0.05 0.05 0.05 0.05 0.05 0.05 0.05 0.05 0.05 0.05 0.05 0.05 0.05 0.05 0.05 0.05 0.05 0.05 
1 1 1 1 1 1 1 1 1 1 1 1 1 1 1 1 1 1 1 1 1 1 1 1 1 1 1 1 1 1 1 1 
